language Essence 1.3

letting blksize_delta be
        function(1 --> 2, 2 --> 2, 3 --> 3, 4 --> 3, 5 --> 3, 6 --> 2, 7 --> 2, 8 --> 4, 9 --> 4, 10 --> 4, 11 --> 2,
                 12 --> 3, 13 --> 4, 14 --> 2, 15 --> 4, 16 --> 4, 17 --> 3, 18 --> 2, 19 --> 2, 20 --> 2, 21 --> 2,
                 22 --> 4, 23 --> 2, 24 --> 4, 25 --> 2, 26 --> 2, 27 --> 2, 28 --> 3, 29 --> 2, 30 --> 2, 31 --> 4,
                 32 --> 3, 33 --> 2, 34 --> 3, 35 --> 3, 36 --> 3, 37 --> 2, 38 --> 2, 39 --> 4, 40 --> 3, 41 --> 2,
                 42 --> 4, 43 --> 3, 44 --> 2, 45 --> 4, 46 --> 3, 47 --> 3, 48 --> 2, 49 --> 4, 50 --> 3, 51 --> 2,
                 52 --> 2, 53 --> 4, 54 --> 2, 55 --> 2, 56 --> 2, 57 --> 3, 58 --> 4, 59 --> 3, 60 --> 3, 61 --> 4)
letting maxcars be
        function(1 --> 1, 2 --> 4, 3 --> 3, 4 --> 4, 5 --> 5, 6 --> 1, 7 --> 2, 8 --> 6, 9 --> 5, 10 --> 2, 11 --> 4,
                 12 --> 3, 13 --> 4, 14 --> 3, 15 --> 6, 16 --> 5, 17 --> 6, 18 --> 6, 19 --> 6, 20 --> 4, 21 --> 5,
                 22 --> 6, 23 --> 2, 24 --> 4, 25 --> 1, 26 --> 6, 27 --> 2, 28 --> 3, 29 --> 4, 30 --> 6, 31 --> 4,
                 32 --> 3, 33 --> 1, 34 --> 4, 35 --> 4, 36 --> 6, 37 --> 2, 38 --> 3, 39 --> 4, 40 --> 6, 41 --> 5,
                 42 --> 3, 43 --> 2, 44 --> 4, 45 --> 1, 46 --> 5, 47 --> 2, 48 --> 2, 49 --> 6, 50 --> 5, 51 --> 4,
                 52 --> 5, 53 --> 1, 54 --> 1, 55 --> 5, 56 --> 4, 57 --> 6, 58 --> 1, 59 --> 3, 60 --> 1, 61 --> 4)
letting n_cars be 46
letting n_classes be 20
letting n_options be 61
letting quantity be
        function(1 --> 6, 2 --> 3, 3 --> 2, 4 --> 3, 5 --> 2, 6 --> 2, 7 --> 2, 8 --> 2, 9 --> 2, 10 --> 2, 11 --> 2,
                 12 --> 2, 13 --> 2, 14 --> 2, 15 --> 2, 16 --> 2, 17 --> 2, 18 --> 2, 19 --> 2, 20 --> 2)
letting usage be
        relation((1, 1), (1, 3), (1, 5), (1, 7), (1, 8), (1, 10), (1, 12), (1, 13), (1, 14), (1, 15), (1, 17), (1, 18),
                 (1, 19), (1, 21), (1, 24), (1, 26), (1, 28), (1, 29), (1, 30), (1, 31), (1, 32), (1, 33), (1, 34),
                 (1, 35), (1, 36), (1, 37), (1, 38), (1, 39), (1, 40), (1, 48), (1, 57), (1, 59), (1, 60), (2, 1),
                 (2, 3), (2, 4), (2, 5), (2, 6), (2, 14), (2, 16), (2, 18), (2, 19), (2, 20), (2, 21), (2, 23), (2, 25),
                 (2, 27), (2, 28), (2, 29), (2, 30), (2, 31), (2, 32), (2, 34), (2, 35), (2, 40), (2, 43), (2, 44),
                 (2, 49), (2, 50), (2, 53), (2, 55), (2, 56), (2, 57), (2, 58), (2, 60), (3, 1), (3, 3), (3, 5), (3, 8),
                 (3, 10), (3, 11), (3, 12), (3, 13), (3, 14), (3, 15), (3, 16), (3, 17), (3, 18), (3, 19), (3, 22),
                 (3, 25), (3, 26), (3, 29), (3, 30), (3, 31), (3, 33), (3, 34), (3, 35), (3, 36), (3, 39), (3, 42),
                 (3, 45), (3, 48), (3, 54), (3, 55), (3, 57), (4, 2), (4, 7), (4, 9), (4, 11), (4, 13), (4, 14),
                 (4, 16), (4, 19), (4, 21), (4, 22), (4, 26), (4, 27), (4, 28), (4, 29), (4, 32), (4, 35), (4, 36),
                 (4, 37), (4, 38), (4, 39), (4, 43), (4, 44), (4, 47), (4, 48), (4, 49), (4, 51), (4, 53), (4, 54),
                 (4, 55), (4, 56), (4, 57), (4, 58), (4, 59), (5, 1), (5, 3), (5, 4), (5, 5), (5, 6), (5, 13), (5, 17),
                 (5, 19), (5, 22), (5, 25), (5, 27), (5, 28), (5, 33), (5, 36), (5, 38), (5, 45), (5, 52), (5, 53),
                 (5, 55), (5, 60), (6, 2), (6, 4), (6, 10), (6, 11), (6, 14), (6, 15), (6, 16), (6, 17), (6, 18),
                 (6, 19), (6, 25), (6, 26), (6, 30), (6, 31), (6, 34), (6, 36), (6, 37), (6, 38), (6, 42), (6, 43),
                 (6, 44), (6, 46), (6, 48), (6, 50), (6, 54), (6, 56), (6, 59), (6, 60), (7, 1), (7, 2), (7, 7), (7, 9),
                 (7, 14), (7, 17), (7, 18), (7, 20), (7, 21), (7, 22), (7, 23), (7, 24), (7, 27), (7, 28), (7, 29),
                 (7, 31), (7, 32), (7, 37), (7, 39), (7, 43), (7, 44), (7, 45), (7, 46), (7, 52), (7, 55), (7, 60),
                 (8, 2), (8, 5), (8, 6), (8, 10), (8, 11), (8, 15), (8, 18), (8, 22), (8, 26), (8, 32), (8, 33),
                 (8, 34), (8, 40), (8, 44), (8, 47), (8, 49), (8, 52), (8, 54), (8, 55), (8, 60), (9, 2), (9, 3),
                 (9, 4), (9, 5), (9, 7), (9, 8), (9, 12), (9, 13), (9, 15), (9, 17), (9, 18), (9, 27), (9, 29), (9, 31),
                 (9, 37), (9, 39), (9, 40), (9, 43), (9, 46), (9, 47), (9, 48), (9, 50), (9, 51), (9, 55), (9, 59),
                 (9, 60), (10, 4), (10, 5), (10, 9), (10, 18), (10, 19), (10, 21), (10, 22), (10, 26), (10, 28),
                 (10, 30), (10, 31), (10, 32), (10, 33), (10, 34), (10, 36), (10, 39), (10, 40), (10, 41), (10, 50),
                 (10, 51), (10, 52), (10, 53), (10, 54), (10, 56), (10, 58), (10, 60), (11, 1), (11, 2), (11, 3),
                 (11, 7), (11, 8), (11, 9), (11, 10), (11, 12), (11, 13), (11, 14), (11, 16), (11, 18), (11, 20),
                 (11, 24), (11, 26), (11, 27), (11, 28), (11, 31), (11, 33), (11, 34), (11, 39), (11, 41), (11, 42),
                 (11, 45), (11, 46), (11, 48), (11, 49), (11, 52), (11, 53), (11, 54), (11, 55), (11, 57), (11, 59),
                 (11, 60), (12, 1), (12, 3), (12, 5), (12, 7), (12, 9), (12, 10), (12, 11), (12, 15), (12, 16),
                 (12, 17), (12, 21), (12, 22), (12, 23), (12, 24), (12, 25), (12, 26), (12, 28), (12, 29), (12, 31),
                 (12, 33), (12, 40), (12, 41), (12, 43), (12, 50), (12, 54), (12, 55), (12, 58), (12, 60), (13, 3),
                 (13, 6), (13, 8), (13, 10), (13, 11), (13, 12), (13, 13), (13, 15), (13, 18), (13, 19), (13, 20),
                 (13, 22), (13, 24), (13, 26), (13, 27), (13, 28), (13, 29), (13, 34), (13, 38), (13, 40), (13, 42),
                 (13, 43), (13, 45), (13, 46), (13, 47), (13, 49), (13, 50), (13, 53), (13, 56), (13, 58), (13, 59),
                 (13, 60), (14, 2), (14, 3), (14, 5), (14, 7), (14, 8), (14, 12), (14, 15), (14, 17), (14, 19),
                 (14, 20), (14, 21), (14, 26), (14, 28), (14, 29), (14, 30), (14, 32), (14, 36), (14, 37), (14, 42),
                 (14, 43), (14, 46), (14, 47), (14, 48), (14, 52), (14, 55), (14, 57), (14, 59), (15, 3), (15, 4),
                 (15, 5), (15, 6), (15, 8), (15, 11), (15, 12), (15, 13), (15, 14), (15, 19), (15, 22), (15, 24),
                 (15, 29), (15, 30), (15, 33), (15, 34), (15, 35), (15, 37), (15, 38), (15, 40), (15, 41), (15, 42),
                 (15, 43), (15, 45), (15, 46), (15, 47), (15, 48), (15, 50), (15, 51), (15, 52), (15, 53), (15, 54),
                 (15, 56), (15, 58), (16, 3), (16, 7), (16, 9), (16, 18), (16, 19), (16, 20), (16, 22), (16, 23),
                 (16, 25), (16, 27), (16, 28), (16, 29), (16, 30), (16, 33), (16, 35), (16, 36), (16, 37), (16, 40),
                 (16, 42), (16, 44), (16, 45), (16, 46), (16, 49), (16, 50), (16, 53), (16, 58), (17, 2), (17, 7),
                 (17, 9), (17, 10), (17, 11), (17, 12), (17, 13), (17, 15), (17, 17), (17, 18), (17, 20), (17, 21),
                 (17, 23), (17, 25), (17, 27), (17, 32), (17, 34), (17, 35), (17, 36), (17, 37), (17, 41), (17, 43),
                 (17, 46), (17, 48), (17, 49), (17, 50), (17, 55), (17, 57), (17, 59), (17, 60), (18, 2), (18, 8),
                 (18, 11), (18, 14), (18, 15), (18, 16), (18, 17), (18, 18), (19, 2), (20, 61))
$ Visualisation for usage
$  1  1
$  1  3
$  1  5
$  1  7
$  1  8
$  1 10
$  1 12
$  1 13
$  1 14
$  1 15
$  1 17
$  1 18
$  1 19
$  1 21
$  1 24
$  1 26
$  1 28
$  1 29
$  1 30
$  1 31
$  1 32
$  1 33
$  1 34
$  1 35
$  1 36
$  1 37
$  1 38
$  1 39
$  1 40
$  1 48
$  1 57
$  1 59
$  1 60
$  2  1
$  2  3
$  2  4
$  2  5
$  2  6
$  2 14
$  2 16
$  2 18
$  2 19
$  2 20
$  2 21
$  2 23
$  2 25
$  2 27
$  2 28
$  2 29
$  2 30
$  2 31
$  2 32
$  2 34
$  2 35
$  2 40
$  2 43
$  2 44
$  2 49
$  2 50
$  2 53
$  2 55
$  2 56
$  2 57
$  2 58
$  2 60
$  3  1
$  3  3
$  3  5
$  3  8
$  3 10
$  3 11
$  3 12
$  3 13
$  3 14
$  3 15
$  3 16
$  3 17
$  3 18
$  3 19
$  3 22
$  3 25
$  3 26
$  3 29
$  3 30
$  3 31
$  3 33
$  3 34
$  3 35
$  3 36
$  3 39
$  3 42
$  3 45
$  3 48
$  3 54
$  3 55
$  3 57
$  4  2
$  4  7
$  4  9
$  4 11
$  4 13
$  4 14
$  4 16
$  4 19
$  4 21
$  4 22
$  4 26
$  4 27
$  4 28
$  4 29
$  4 32
$  4 35
$  4 36
$  4 37
$  4 38
$  4 39
$  4 43
$  4 44
$  4 47
$  4 48
$  4 49
$  4 51
$  4 53
$  4 54
$  4 55
$  4 56
$  4 57
$  4 58
$  4 59
$  5  1
$  5  3
$  5  4
$  5  5
$  5  6
$  5 13
$  5 17
$  5 19
$  5 22
$  5 25
$  5 27
$  5 28
$  5 33
$  5 36
$  5 38
$  5 45
$  5 52
$  5 53
$  5 55
$  5 60
$  6  2
$  6  4
$  6 10
$  6 11
$  6 14
$  6 15
$  6 16
$  6 17
$  6 18
$  6 19
$  6 25
$  6 26
$  6 30
$  6 31
$  6 34
$  6 36
$  6 37
$  6 38
$  6 42
$  6 43
$  6 44
$  6 46
$  6 48
$  6 50
$  6 54
$  6 56
$  6 59
$  6 60
$  7  1
$  7  2
$  7  7
$  7  9
$  7 14
$  7 17
$  7 18
$  7 20
$  7 21
$  7 22
$  7 23
$  7 24
$  7 27
$  7 28
$  7 29
$  7 31
$  7 32
$  7 37
$  7 39
$  7 43
$  7 44
$  7 45
$  7 46
$  7 52
$  7 55
$  7 60
$  8  2
$  8  5
$  8  6
$  8 10
$  8 11
$  8 15
$  8 18
$  8 22
$  8 26
$  8 32
$  8 33
$  8 34
$  8 40
$  8 44
$  8 47
$  8 49
$  8 52
$  8 54
$  8 55
$  8 60
$  9  2
$  9  3
$  9  4
$  9  5
$  9  7
$  9  8
$  9 12
$  9 13
$  9 15
$  9 17
$  9 18
$  9 27
$  9 29
$  9 31
$  9 37
$  9 39
$  9 40
$  9 43
$  9 46
$  9 47
$  9 48
$  9 50
$  9 51
$  9 55
$  9 59
$  9 60
$ 10  4
$ 10  5
$ 10  9
$ 10 18
$ 10 19
$ 10 21
$ 10 22
$ 10 26
$ 10 28
$ 10 30
$ 10 31
$ 10 32
$ 10 33
$ 10 34
$ 10 36
$ 10 39
$ 10 40
$ 10 41
$ 10 50
$ 10 51
$ 10 52
$ 10 53
$ 10 54
$ 10 56
$ 10 58
$ 10 60
$ 11  1
$ 11  2
$ 11  3
$ 11  7
$ 11  8
$ 11  9
$ 11 10
$ 11 12
$ 11 13
$ 11 14
$ 11 16
$ 11 18
$ 11 20
$ 11 24
$ 11 26
$ 11 27
$ 11 28
$ 11 31
$ 11 33
$ 11 34
$ 11 39
$ 11 41
$ 11 42
$ 11 45
$ 11 46
$ 11 48
$ 11 49
$ 11 52
$ 11 53
$ 11 54
$ 11 55
$ 11 57
$ 11 59
$ 11 60
$ 12  1
$ 12  3
$ 12  5
$ 12  7
$ 12  9
$ 12 10
$ 12 11
$ 12 15
$ 12 16
$ 12 17
$ 12 21
$ 12 22
$ 12 23
$ 12 24
$ 12 25
$ 12 26
$ 12 28
$ 12 29
$ 12 31
$ 12 33
$ 12 40
$ 12 41
$ 12 43
$ 12 50
$ 12 54
$ 12 55
$ 12 58
$ 12 60
$ 13  3
$ 13  6
$ 13  8
$ 13 10
$ 13 11
$ 13 12
$ 13 13
$ 13 15
$ 13 18
$ 13 19
$ 13 20
$ 13 22
$ 13 24
$ 13 26
$ 13 27
$ 13 28
$ 13 29
$ 13 34
$ 13 38
$ 13 40
$ 13 42
$ 13 43
$ 13 45
$ 13 46
$ 13 47
$ 13 49
$ 13 50
$ 13 53
$ 13 56
$ 13 58
$ 13 59
$ 13 60
$ 14  2
$ 14  3
$ 14  5
$ 14  7
$ 14  8
$ 14 12
$ 14 15
$ 14 17
$ 14 19
$ 14 20
$ 14 21
$ 14 26
$ 14 28
$ 14 29
$ 14 30
$ 14 32
$ 14 36
$ 14 37
$ 14 42
$ 14 43
$ 14 46
$ 14 47
$ 14 48
$ 14 52
$ 14 55
$ 14 57
$ 14 59
$ 15  3
$ 15  4
$ 15  5
$ 15  6
$ 15  8
$ 15 11
$ 15 12
$ 15 13
$ 15 14
$ 15 19
$ 15 22
$ 15 24
$ 15 29
$ 15 30
$ 15 33
$ 15 34
$ 15 35
$ 15 37
$ 15 38
$ 15 40
$ 15 41
$ 15 42
$ 15 43
$ 15 45
$ 15 46
$ 15 47
$ 15 48
$ 15 50
$ 15 51
$ 15 52
$ 15 53
$ 15 54
$ 15 56
$ 15 58
$ 16  3
$ 16  7
$ 16  9
$ 16 18
$ 16 19
$ 16 20
$ 16 22
$ 16 23
$ 16 25
$ 16 27
$ 16 28
$ 16 29
$ 16 30
$ 16 33
$ 16 35
$ 16 36
$ 16 37
$ 16 40
$ 16 42
$ 16 44
$ 16 45
$ 16 46
$ 16 49
$ 16 50
$ 16 53
$ 16 58
$ 17  2
$ 17  7
$ 17  9
$ 17 10
$ 17 11
$ 17 12
$ 17 13
$ 17 15
$ 17 17
$ 17 18
$ 17 20
$ 17 21
$ 17 23
$ 17 25
$ 17 27
$ 17 32
$ 17 34
$ 17 35
$ 17 36
$ 17 37
$ 17 41
$ 17 43
$ 17 46
$ 17 48
$ 17 49
$ 17 50
$ 17 55
$ 17 57
$ 17 59
$ 17 60
$ 18  2
$ 18  8
$ 18 11
$ 18 14
$ 18 15
$ 18 16
$ 18 17
$ 18 18
$ 19  2
$ 20 61

